X                                       
   1.00000000000000     
     3.7530000000000001    0.0000000000000000    0.0000000000000000
     0.0000000000000000    3.7530000000000001    0.0000000000000000
     0.0000000000000000    0.0000000000000000    3.7530000000000001
    X
     4
Direct
  0.0000000000000000  0.5000000000000000  0.5000000000000000
  0.5000000000000000  0.0000000000000000  0.5000000000000000
  0.5000000000000000  0.5000000000000000  0.0000000000000000
  0.0000000000000000  0.0000000000000000  0.0000000000000000

