alpha ThCl4                             
   1.00000000000000     
     6.4080000000000004    0.0000000000000000    0.0000000000000000
     0.0000000000000000    6.4080000000000004    0.0000000000000000
     0.0000000000000000    0.0000000000000000   12.9239999999999995
   Th   Cl
     4    16
Direct
  0.0000000000000000  0.2500000000000000  0.1250000000000000
  0.5000000000000000  0.2500000000000000  0.3750000000000000
  0.5000000000000000  0.7500000000000000  0.6250000000000000
  1.0000000000000000  0.7500000000000000  0.8750000000000000
  0.3500000000000000  0.4940000000000000  0.2000000000000000
  0.1500000000000000 -0.4940000000000000  0.7000000000000000
  0.2560000000000000  0.6000000000000000  0.4500000000000000
  1.2440000000000000  0.4000000000000000  0.9500000000000000
 -0.3500000000000000 -0.4940000000000000 -0.2000000000000000
  0.8500000000000000  0.4940000000000000  0.3000000000000000
  0.7440000000000000  0.4000000000000000  0.5500000000000000
 -0.2440000000000000  0.6000000000000000  0.0500000000000000
  0.8500000000000000  0.9940000000000000  0.7000000000000000
  0.6500000000000000  0.0060000000000000  1.2000000000000000
  0.7560000000000000  1.1000000000000001  0.9500000000000000
  1.7440000000000000  0.9000000000000000  1.4500000000000000
  0.1500000000000000  0.0060000000000000  0.3000000000000000
  1.3500000000000001  0.9940000000000000  0.8000000000000000
  1.2440000000000000  0.9000000000000000  1.0500000000000000
  0.2560000000000000  1.1000000000000001  0.5500000000000000
