Sc-V                                    
   1.00000000000000     
     1.1775000000000000   -2.0394898259123528    0.0000000000000000
     1.1775000000000000    2.0394898259123528    0.0000000000000000
     0.0000000000000000    0.0000000000000000   10.4459999999999997
   Sc
     6
Direct
  0.4610000000000000  0.0000000000000000  0.0000000000000000
  0.4610000000000000  0.4610000000000000  0.1666666666666667
  0.0000000000000000  0.4610000000000000  0.3333333333333333
 -0.4610000000000000  0.0000000000000000  0.5000000000000000
 -0.4610000000000000 -0.4610000000000000  0.6666666666666666
  0.0000000000000000 -0.4610000000000000  0.8333333333333334
