Comment
1.0
5.7898 -10.028227765662285 0.0
5.7898 10.028227765662285 0.0
0.0 0.0 3.6811
Mg N H
12 12 12
Direct
0.584 0.8677 0.0
-0.8677 -0.28370000000000006 0.0
0.28370000000000006 -0.584 0.0
-0.584 -0.8677 0.0
0.8677 0.28370000000000006 0.0
-0.28370000000000006 0.584 0.0
0.9285 0.5721 0.5
-0.5721 0.35639999999999994 0.5
-0.35639999999999994 -0.9285 0.5
-0.9285 -0.5721 0.5
0.5721 -0.35639999999999994 0.5
0.35639999999999994 0.9285 0.5
0.6517 0.7279 0.0
-0.7279 -0.07620000000000005 0.0
0.07620000000000005 -0.6517 0.0
-0.6517 -0.7279 0.0
0.7279 0.07620000000000005 0.0
-0.07620000000000005 0.6517 0.0
0.4954 0.8633 0.5
-0.8633 -0.36789999999999995 0.5
0.36789999999999995 -0.4954 0.5
-0.4954 -0.8633 0.5
0.8633 0.36789999999999995 0.5
-0.36789999999999995 0.4954 0.5
0.9402 0.745 0.0
-0.745 0.19520000000000004 0.0
-0.19520000000000004 -0.9402 0.0
-0.9402 -0.745 0.0
0.745 -0.19520000000000004 0.0
0.19520000000000004 0.9402 0.0
0.4273 0.7666 0.5
-0.7666 -0.33929999999999993 0.5
0.33929999999999993 -0.4273 0.5
-0.4273 -0.7666 0.5
0.7666 0.33929999999999993 0.5
-0.33929999999999993 0.4273 0.5
