Ti                                      
   1.00000000000000     
     1.2500000000000000   -2.1650635094610964    0.0000000000000000
     1.2500000000000000    2.1650635094610964    0.0000000000000000
     0.0000000000000000    0.0000000000000000    2.5000000000000000
   Ti   Zr
     2     1
Direct
  0.0000000000000000  0.0000000000000000  0.0000000000000000
  0.6666666666666666  0.3333333333333333  0.5000000000000000
  0.3333333333333333  0.6666666666666666  0.5000000000000000

