Mn                                      
   1.00000000000000     
     6.0069999999999997    0.0000000000000000    0.0000000000000000
     0.0000000000000000    6.0069999999999997    0.0000000000000000
     0.0000000000000000    0.0000000000000000    6.0069999999999997
   Mn
    20
Direct
  0.0590000000000000  0.0590000000000000  0.0590000000000000
  0.5589999999999999  0.4410000000000000 -0.0590000000000000
  0.4410000000000000 -0.0590000000000000  0.5589999999999999
 -0.0590000000000000  0.5589999999999999  0.4410000000000000
  0.6910000000000001  0.6910000000000001  0.6910000000000001
  0.1910000000000000  0.8089999999999999  0.3090000000000000
  0.3090000000000000  0.1910000000000000  0.8089999999999999
  0.8089999999999999  0.3090000000000000  0.1910000000000000
  0.1250000000000000  0.1900000000000000  0.4400000000000000
  0.1900000000000000  0.4400000000000000  0.1250000000000000
  0.4400000000000000  0.1250000000000000  0.1900000000000000
  0.3750000000000000 -0.1900000000000000  0.9399999999999999
 -0.1900000000000000  0.9399999999999999  0.3750000000000000
  0.9399999999999999  0.3750000000000000 -0.1900000000000000
  0.6250000000000000  0.3100000000000000  0.5600000000000001
  0.3100000000000000  0.5600000000000001  0.6250000000000000
  0.5600000000000001  0.6250000000000000  0.3100000000000000
  0.8750000000000000  0.6899999999999999  0.0600000000000000
  0.6899999999999999  0.0600000000000000  0.8750000000000000
  0.0600000000000000  0.8750000000000000  0.6899999999999999
 
