Cu Au
 1.0000000000000000
    11.2590000000000003    0.0000000000000000    0.0000000000000000
     0.0000000000000000   11.2590000000000003    0.0000000000000000
     0.0000000000000000    0.0000000000000000   11.2590000000000003
 Cu  Au 
  81  27
Direct
  0.0005745466020530  0.0006622413878287 -0.0000462844433759
  0.6680892494574818 -0.0013629019985120  0.3295756612905684
  0.8277767934221298  0.1643677436873781 -0.0008634774543910
  0.6665436022106727  0.1669710199760064  0.1658642070302083
  0.6636353272258765  0.0011733798376323  0.0000363431085993
  0.5030688124286795  0.8391894530672084  0.6736966322897702
  0.5000344025127770  0.6684718392457905  0.8390542553437518
  0.3374152227401963  0.8314584506049176  0.8388732454878238
  0.3364625798013678  0.6673316663527138  0.6763170608143285
  0.5043243382577023  0.8380294498259685  0.3291478817642147
  0.5001961196975337  0.8317545252933815 -0.0007013175418038
  0.5041853643775046  0.6668841154021721  0.1618621570039362
  0.3346020171721302  0.8353402573341788  0.1615456384270491
  0.3341879024186292  0.6715543396041085 -0.0005430506303204
  0.4992443372635296  0.5026544904830520  0.6744172698009649
  0.3346455694642546  0.5062219676816515  0.8394170319364969
  0.3345721703754306  0.3337131496222359  0.6704243327424949
  0.5084546531631498  0.5003013787758268  0.3238881278201826
  0.3371793740496418  0.3306474585700050  0.3268520938091766
  0.5067579437081082  0.5030429709251741  0.0006724038639732
  0.8342763639871348 -0.0037118788565214  0.4938414438533326
  0.8353328606956436  0.1673132736258607  0.3287336972994410
  0.6737284319321495 -0.0052341622306186  0.6696865007334322
  0.6694728897691100  0.1624889711240705  0.8383675669170940
  0.6654891867065502  0.8369748261603711  0.8401807724186620
  0.8327136415682860  0.8321648561274830  0.3312241526578912
  0.8340121669864492  0.6685657562607542  0.4960018737883840
  0.6716175455290280  0.8368099934207222  0.4963636835622454
  0.6721157018322457  0.6655354884371111  0.3295214679597385
  0.8341550079050404  0.8367665564679475  0.0017484273462657
  0.8307388051727952  0.6698168786563654  0.1624383617181935
  0.6646625153699167  0.6663985907132900 -0.0000375930445996
  0.8306838998768218  0.3319370813556385  0.8357307855824067
  0.5065380914330192  0.3307367490380685  0.1641932433911402
  0.6668261700149675  0.5015822027223565  0.8397193874912238
  0.8362274522668163  0.3334704042224022  0.4943918785121144
  0.6746451111624178  0.5009213494665977  0.4934707951985094
  0.6718074510233929  0.3343283231704191  0.3261553436269844
  0.8262237676971589  0.4996879355119024  0.0003041784506847
  0.8286904253866325  0.3301525395532890  0.1672834714048772
  0.6699003763966856  0.5007384249217075  0.1646093334876920
  0.6697466043345677  0.3320537705910393  0.0032624007856990
  0.8323422708424911  0.1671149754601060  0.6701828867426876
  0.8287121628739209 -0.0019706756854103  0.8406042308575022
  0.8319750900478458  0.5007483606511176  0.3322363013437458
  0.3372276193755478  0.3262357765126492  0.0029262814901435
  0.8311279903566218  0.8324689828708890  0.6671770822956937
 -0.0024718712793140  0.6718028741095945  0.6719887207651050
  0.1595108384341569  0.5023245105430020  0.6711849526153666
  0.0023758575035473  0.6717207618964144  0.0017843659393986
  0.5038502087968653 -0.0032571712479271  0.8394371751127232
 -0.0008928520749657  0.8333728433963448  0.1631264215346052
  0.1644934298839253  0.6724402053378423  0.1606094038928812
 -0.0062614763986209  0.1631966955021029  0.8366434036438106
  0.1658408876890992  0.8341335104515210  0.0002713000771557
 -0.0072703856469854  0.6721790015816714  0.3290733251154093
 -0.0107572319125983  0.8326336346330572  0.4965471278744766
 -0.0021625636263158  0.3300651044966018  0.6680855988451176
  0.1605406588829681  0.8348023335589186  0.3228553759362985
 -0.0012243477104875  0.8365662887181879  0.8428575099978957
  0.1591835531522362  0.3294154351187302  0.4996875318407489
 -0.0035918635314633  0.4976695071049966  0.4968380477466699
  0.1646004232619888  0.0006839455757313  0.8407867024865884
  0.1613336292309751  0.1646591028272974  0.3295946356792683
 -0.0063486966020290  0.3288283108289174  0.3313947688508703
  0.3345101297824786  0.1636227072346390  0.8391104564185647
 -0.0020421366033553  0.1635394267044070  0.1659795368122861
  0.3344597370785563 -0.0026542310064614  0.6775911531276380
  0.5044967213137889  0.1634023427910689  0.3249439810098785
  0.5081246390904576 -0.0029366556825864  0.4960096366891416
  0.1668348316296076  0.5058893632128992  0.0003687413847612
  0.1629130878990208  0.0003395537359132  0.1659533986978237
  0.1647772220757096  0.1607727185612247 -0.0009016088522242
  0.3344176122891132 -0.0026984521806604  0.3221614133303557
  0.5047019814067378  0.1649125356390546  0.0038983850598510
 -0.0046750513312924 -0.0013495186883271  0.3285178399481113
  0.5026804460976895  0.0010865079229435  0.1656460436359800
  0.3378295426251866  0.1638605870927321  0.1679276694481454
 -0.0081640938026755  0.1679286203594415  0.4965494499804103
  0.1663411612521442  0.6651589639953061  0.8400392932118834
  0.0010537588667456  0.5032385276529923  0.8387773162034672
  0.6707976951334156  0.3356371812334490  0.6693856819355499
  0.5012029658655777  0.1561695957274824  0.6717197108810659
  0.1658245874646965  0.1657567847916466  0.6698969088900556
 -0.0125175477027105 -0.0012161017716538  0.6709164522588497
  0.6645220933689352  0.8314371844767359  0.1639352781890420
  0.1570074177410458 -0.0030008703361699  0.4907825643225290
  0.6661061363356975  0.6706261029742214  0.6710919589284202
  0.8424001708363466  0.5009090391762344  0.6658377072055621
 -0.0093887851434557  0.3290758082103810 -0.0020414791709505
  0.6751080410042420  0.1608921302600646  0.4936033987677755
  0.1674590074589732  0.3236385196723690  0.1629354163384072
  0.3400971761319671  0.4987275733144007  0.1571575640412482
  0.8358600475089715  0.6713864311911427  0.8430291102505364
  0.5053409110453690  0.3374212547257138  0.4914937052506763
  0.3349239670399066  0.1624862281065214  0.4905491497204625
  0.4988934853475819  0.3347897391846992  0.8422187384770361
  0.3346649743334946 -0.0002829124108543  0.0022235853636605
 -0.0093354622687401  0.5052467451134728  0.1635531964605617
  0.1663394954095657  0.8331006086627513  0.6809276242790754
  0.3397226786582823  0.8408346439816422  0.5022672964341902
  0.5076908352463464  0.6661559017170721  0.4965951526660413
  0.1558494448783582  0.6719599681335388  0.5017714158781941
  0.8342274144544460  0.0023414219340721  0.1643226409314464
  0.1708015613493029  0.3378044127329016  0.8376259606891744
  0.1603117134506725  0.4970684929331673  0.3320913095068543
  0.3350623010141369  0.6733503477314623  0.3238340762493767
  0.3290799594225603  0.4978315308076128  0.5071286328598390
