NaGdCu2F8                               
   1.00000000000000     
     5.4070000000000000    0.0000000000000000    0.0000000000000000
     0.0000000000000000    5.4070000000000000    0.0000000000000000
     0.0000000000000000    0.0000000000000000   10.3819999999999997
   Gd   Na   Cu   F 
     2     2     4    16
Direct
  0.0000000000000000  0.0000000000000000  0.0000000000000000
  0.5000000000000000  0.5000000000000000  0.5000000000000000
  0.0000000000000000  0.0000000000000000  0.5000000000000000
  0.5000000000000000  0.5000000000000000  1.0000000000000000
  0.0000000000000000  0.5000000000000000  0.2500000000000000
  0.5000000000000000  0.0000000000000000  0.2500000000000000
  0.5000000000000000  1.0000000000000000  0.7500000000000000
  1.0000000000000000  0.5000000000000000  0.7500000000000000
  0.1872000000000000  0.3303000000000000  0.3763000000000000
 -0.1872000000000000 -0.3303000000000000  0.3763000000000000
 -0.3303000000000000  0.1872000000000000  0.3763000000000000
  0.3303000000000000 -0.1872000000000000  0.3763000000000000
 -0.1872000000000000  0.3303000000000000 -0.3763000000000000
  0.1872000000000000 -0.3303000000000000 -0.3763000000000000
  0.3303000000000000  0.1872000000000000 -0.3763000000000000
 -0.3303000000000000 -0.1872000000000000 -0.3763000000000000
  0.6872000000000000  0.8303000000000000  0.8763000000000001
  0.3128000000000000  0.1697000000000000  0.8763000000000001
  0.1697000000000000  0.6872000000000000  0.8763000000000001
  0.8303000000000000  0.3128000000000000  0.8763000000000001
  0.3128000000000000  0.8303000000000000  0.1237000000000000
  0.6872000000000000  0.1697000000000000  0.1237000000000000
  0.8303000000000000  0.6872000000000000  0.1237000000000000
  0.1697000000000000  0.3128000000000000  0.1237000000000000
