C                                       
   1.00000000000000     
     3.5699999999999998    0.0000000000000000    0.0000000000000000
     0.0000000000000000    3.5699999999999998    0.0000000000000000
     0.0000000000000000    0.0000000000000000    3.5699999999999998
    C
     8
Direct
  0.0000000000000000  0.0000000000000000  0.0000000000000000
  0.0000000000000000  0.5000000000000000  0.5000000000000000
  0.5000000000000000  0.0000000000000000  0.5000000000000000
  0.5000000000000000  0.5000000000000000  0.0000000000000000
  0.2500000000000000  0.2500000000000000  0.2500000000000000
  0.2500000000000000  0.7500000000000000  0.7500000000000000
  0.7500000000000000  0.2500000000000000  0.7500000000000000
  0.7500000000000000  0.7500000000000000  0.2500000000000000

