Po                                      
   1.00000000000000     
     3.3500000000000001    0.0000000000000000    0.0000000000000000
     0.0000000000000000    3.3500000000000001    0.0000000000000000
     0.0000000000000000    0.0000000000000000    3.3500000000000001
   Po
     1
Direct
  0.0000000000000000  0.0000000000000000  0.0000000000000000
 
