Al                                      
   1.00000000000000     
     1.4318912319027588   -2.4801083645679678    0.0000000000000000
     1.4318912319027588    2.4801083645679678    0.0000000000000000
     0.0000000000000000    0.0000000000000000    4.6765371804359690
   Al
     2
Direct
  0.0000000000000000  0.0000000000000000  0.0000000000000000
  0.6666666666666666  0.3333333333333333  0.5000000000000000

