Cl12Pd6                                 
   1.00000000000000     
     6.5235500000000002  -11.2991200457159486    0.0000000000000000
     6.5235500000000002   11.2991200457159486    0.0000000000000000
     0.0000000000000000    0.0000000000000000    8.6016999999999992
   Cl   Pd
    36    18
Direct
  0.0233500000000000  0.2597500000000000  0.0004500000000000
 -0.2597500000000000 -0.2364000000000000  0.0004500000000000
  0.2364000000000000 -0.0233500000000000  0.0004500000000000
 -0.0233500000000000 -0.2597500000000000 -0.0004500000000000
  0.2597500000000000  0.2364000000000000 -0.0004500000000000
 -0.2364000000000000  0.0233500000000000 -0.0004500000000000
  0.6900166666666666  0.5930833333333333  0.3337833333333333
  0.4069166666666666  0.0969333333333333  0.3337833333333333
  0.9030666666666666  0.3099833333333333  0.3337833333333333
  0.6433166666666666  0.0735833333333333  0.3328833333333333
  0.9264166666666667  0.5697333333333333  0.3328833333333333
  0.4302666666666667  0.3566833333333333  0.3328833333333333
  0.3566833333333333  0.9264166666666667  0.6671166666666666
  0.0735833333333333  0.4302666666666667  0.6671166666666666
  0.5697333333333333  0.6433166666666666  0.6671166666666666
  0.3099833333333333  0.4069166666666666  0.6662166666666667
  0.5930833333333333  0.9030666666666666  0.6662166666666667
  0.0969333333333333  0.6900166666666666  0.6662166666666667
  0.0951800000000000  0.1665600000000000  0.3126500000000000
 -0.1665600000000000 -0.0713800000000000  0.3126500000000000
  0.0713800000000000 -0.0951800000000000  0.3126500000000000
 -0.0951800000000000 -0.1665600000000000 -0.3126500000000000
  0.1665600000000000  0.0713800000000000 -0.3126500000000000
 -0.0713800000000000  0.0951800000000000 -0.3126500000000000
  0.7618466666666667  0.4998933333333333  0.6459833333333334
  0.5001066666666666  0.2619533333333333  0.6459833333333334
  0.7380466666666666  0.2381533333333333  0.6459833333333334
  0.5714866666666666  0.1667733333333333  0.0206833333333333
  0.8332266666666667  0.4047133333333333  0.0206833333333333
  0.5952866666666666  0.4285133333333333  0.0206833333333333
  0.4285133333333333  0.8332266666666667  0.9793166666666666
  0.1667733333333333  0.5952866666666666  0.9793166666666666
  0.4047133333333333  0.5714866666666666  0.9793166666666666
  0.2381533333333333  0.5001066666666666  0.3540166666666666
  0.4998933333333333  0.7380466666666666  0.3540166666666666
  0.2619533333333333  0.7618466666666667  0.3540166666666666
  0.1672000000000000  0.0719600000000000  0.1591000000000000
 -0.0719600000000000  0.0952400000000000  0.1591000000000000
 -0.0952400000000000 -0.1672000000000000  0.1591000000000000
 -0.1672000000000000 -0.0719600000000000 -0.1591000000000000
  0.0719600000000000 -0.0952400000000000 -0.1591000000000000
  0.0952400000000000  0.1672000000000000 -0.1591000000000000
  0.8338666666666666  0.4052933333333333  0.4924333333333333
  0.5947066666666666  0.4285733333333333  0.4924333333333333
  0.5714266666666666  0.1661333333333333  0.4924333333333333
  0.4994666666666666  0.2613733333333333  0.1742333333333333
  0.7386266666666667  0.2380933333333333  0.1742333333333333
  0.7619066666666666  0.5005333333333333  0.1742333333333333
  0.5005333333333333  0.7386266666666667  0.8257666666666666
  0.2613733333333333  0.7619066666666666  0.8257666666666666
  0.2380933333333333  0.4994666666666666  0.8257666666666666
  0.1661333333333333  0.5947066666666666  0.5075666666666666
  0.4052933333333333  0.5714266666666666  0.5075666666666666
  0.4285733333333333  0.8338666666666666  0.5075666666666666
